
Gurobi 7.5.2 (mac64) logging started Tue  6 Mar 10:42:38 2018

Academic license - for non-commercial use only
Optimize a model with 2 rows, 4 columns and 8 nonzeros
Variable types: 0 continuous, 4 integer (0 binary)
Coefficient statistics:
  Matrix range     [2e-01, 4e-01]
  Objective range  [5e+06, 5e+06]
  Bounds range     [0e+00, 0e+00]
  RHS range        [3e+05, 8e+05]
Found heuristic solution: objective 1.000002e+13
Presolve removed 2 rows and 4 columns
Presolve time: 0.02s
Presolve: All rows and columns removed

Explored 0 nodes (0 simplex iterations) in 0.04 seconds
Thread count was 1 (of 4 available processors)

Solution count 1: 1e+13 

Optimal solution found (tolerance 1.00e-04)
Best objective 1.000002073600e+13, best bound 1.000002073600e+13, gap 0.0000%

Gurobi 7.5.2 (mac64) logging started Tue Mar  6 10:42:48 2018

Academic license - for non-commercial use only
Optimize a model with 3 rows, 4 columns and 12 nonzeros
Variable types: 0 continuous, 4 integer (0 binary)
Coefficient statistics:
  Matrix range     [2e-01, 4e-01]
  Objective range  [5e+06, 5e+06]
  Bounds range     [0e+00, 0e+00]
  RHS range        [4e+05, 8e+05]
Found heuristic solution: objective 2.000004e+13
Presolve removed 2 rows and 2 columns
Presolve time: 0.00s
Presolved: 1 rows, 2 columns, 2 nonzeros
Found heuristic solution: objective 1.142861e+13
Variable types: 0 continuous, 2 integer (0 binary)

Root relaxation: objective 1.142861e+13, 1 iterations, 0.00 seconds

    Nodes    |    Current Node    |     Objective Bounds      |     Work
 Expl Unexpl |  Obj  Depth IntInf | Incumbent    BestBd   Gap | It/Node Time

     0     0 1.1429e+13    0    1 1.1429e+13 1.1429e+13  0.00%     -    0s

Explored 1 nodes (1 simplex iterations) in 0.07 seconds
Thread count was 4 (of 4 available processors)

Solution count 1: 1.14286e+13 

Optimal solution found (tolerance 1.00e-04)
Best objective 1.142861037143e+13, best bound 1.142860787143e+13, gap 0.0000%

Gurobi 7.5.2 (mac64) logging started Tue Mar  6 10:42:54 2018

Academic license - for non-commercial use only
Optimize a model with 3 rows, 4 columns and 12 nonzeros
Variable types: 0 continuous, 4 integer (0 binary)
Coefficient statistics:
  Matrix range     [2e-01, 4e-01]
  Objective range  [5e+06, 5e+06]
  Bounds range     [0e+00, 0e+00]
  RHS range        [3e+05, 9e+05]
Found heuristic solution: objective 1.406253e+13
Presolve removed 2 rows and 2 columns
Presolve time: 0.00s
Presolved: 1 rows, 2 columns, 2 nonzeros
Variable types: 0 continuous, 2 integer (0 binary)

Root relaxation: objective 1.125003e+13, 1 iterations, 0.00 seconds

    Nodes    |    Current Node    |     Objective Bounds      |     Work
 Expl Unexpl |  Obj  Depth IntInf | Incumbent    BestBd   Gap | It/Node Time

*    0     0               0    1.125003e+13 1.1250e+13  0.00%     -    0s

Explored 0 nodes (1 simplex iterations) in 0.00 seconds
Thread count was 4 (of 4 available processors)

Solution count 2: 1.125e+13 1.40625e+13 

Optimal solution found (tolerance 1.00e-04)
Best objective 1.125003460500e+13, best bound 1.125003460500e+13, gap 0.0000%

Gurobi 7.5.2 (mac64) logging started Tue Mar  6 12:23:00 2018

Academic license - for non-commercial use only
Optimize a model with 1 rows, 3 columns and 3 nonzeros
Coefficient statistics:
  Matrix range     [1e+00, 7e+00]
  Objective range  [1e+00, 1e+01]
  Bounds range     [0e+00, 0e+00]
  RHS range        [3e+01, 3e+01]
Presolve removed 1 rows and 1 columns
Presolve time: 0.01s

Solved in 0 iterations and 0.01 seconds
Infeasible or unbounded model

Gurobi 7.5.2 (mac64) logging started Tue Mar  6 12:26:02 2018

Academic license - for non-commercial use only
Optimize a model with 1 rows, 3 columns and 3 nonzeros
Coefficient statistics:
  Matrix range     [1e+00, 7e+00]
  Objective range  [1e+00, 1e+01]
  Bounds range     [0e+00, 0e+00]
  RHS range        [3e+01, 3e+01]
Presolve removed 1 rows and 1 columns
Presolve time: 0.00s

Solved in 0 iterations and 0.00 seconds
Infeasible or unbounded model

Gurobi 7.5.2 (mac64) logging started Tue Mar  6 12:26:25 2018

Academic license - for non-commercial use only
Optimize a model with 1 rows, 3 columns and 3 nonzeros
Coefficient statistics:
  Matrix range     [1e+00, 7e+00]
  Objective range  [1e+00, 1e+01]
  Bounds range     [1e+04, 1e+04]
  RHS range        [3e+01, 3e+01]
Presolve removed 1 rows and 3 columns
Presolve time: 0.00s
Presolve: All rows and columns removed
Iteration    Objective       Primal Inf.    Dual Inf.      Time
       0    1.5077500e+04   0.000000e+00   0.000000e+00      0s

Solved in 0 iterations and 0.01 seconds
Optimal objective  1.507750000e+04

Gurobi 7.5.2 (mac64) logging started Tue Mar  6 12:46:02 2018

Academic license - for non-commercial use only
Optimize a model with 1 rows, 3 columns and 3 nonzeros
Coefficient statistics:
  Matrix range     [1e+00, 7e+00]
  Objective range  [1e+00, 1e+01]
  Bounds range     [0e+00, 0e+00]
  RHS range        [3e+01, 3e+01]
Presolve removed 1 rows and 3 columns
Presolve time: 0.00s
Presolve: All rows and columns removed
Iteration    Objective       Primal Inf.    Dual Inf.      Time
       0    7.7500000e+01   0.000000e+00   0.000000e+00      0s

Solved in 0 iterations and 0.00 seconds
Optimal objective  7.750000000e+01

Gurobi 7.5.2 (mac64) logging started Tue Mar  6 12:46:18 2018

Academic license - for non-commercial use only
Optimize a model with 1 rows, 5 columns and 5 nonzeros
Variable types: 0 continuous, 5 integer (5 binary)
Coefficient statistics:
  Matrix range     [1e+00, 4e+00]
  Objective range  [3e+00, 2e+01]
  Bounds range     [1e+00, 1e+00]
  RHS range        [1e+01, 1e+01]
Found heuristic solution: objective 31.0000000
Presolve removed 1 rows and 5 columns
Presolve time: 0.00s
Presolve: All rows and columns removed

Explored 0 nodes (0 simplex iterations) in 0.00 seconds
Thread count was 1 (of 4 available processors)

Solution count 1: 31 

Optimal solution found (tolerance 1.00e-04)
Best objective 3.100000000000e+01, best bound 3.100000000000e+01, gap 0.0000%

Gurobi 7.5.2 (mac64) logging started Tue Mar  6 12:46:27 2018

Academic license - for non-commercial use only
Optimize a model with 1 rows, 3 columns and 3 nonzeros
Coefficient statistics:
  Matrix range     [1e+00, 7e+00]
  Objective range  [1e+00, 1e+01]
  Bounds range     [0e+00, 0e+00]
  RHS range        [3e+01, 3e+01]
Presolve removed 1 rows and 3 columns
Presolve time: 0.00s
Presolve: All rows and columns removed
Iteration    Objective       Primal Inf.    Dual Inf.      Time
       0    7.7500000e+01   0.000000e+00   0.000000e+00      0s

Solved in 0 iterations and 0.00 seconds
Optimal objective  7.750000000e+01

Gurobi 7.5.2 (mac64) logging started Tue Mar  6 12:46:37 2018

Academic license - for non-commercial use only
Optimize a model with 1 rows, 5 columns and 5 nonzeros
Variable types: 0 continuous, 5 integer (5 binary)
Coefficient statistics:
  Matrix range     [1e+00, 4e+00]
  Objective range  [5e-01, 1e+01]
  Bounds range     [1e+00, 1e+00]
  RHS range        [1e+01, 1e+01]
Found heuristic solution: objective -14.5000000

Explored 0 nodes (0 simplex iterations) in 0.00 seconds
Thread count was 1 (of 4 available processors)

Solution count 1: -14.5 

Optimal solution found (tolerance 1.00e-04)
Best objective -1.450000000000e+01, best bound -1.450000000000e+01, gap 0.0000%

Gurobi 7.5.2 (mac64) logging started Tue Mar  6 12:46:37 2018

Academic license - for non-commercial use only
Optimize a model with 2 rows, 3 columns and 6 nonzeros
Coefficient statistics:
  Matrix range     [1e+00, 1e+01]
  Objective range  [1e+00, 1e+01]
  Bounds range     [0e+00, 0e+00]
  RHS range        [3e+01, 6e+01]
Presolve time: 0.00s
Presolved: 2 rows, 3 columns, 6 nonzeros

Iteration    Objective       Primal Inf.    Dual Inf.      Time
       0      handle free variables                          0s
       3    6.3000000e+01   0.000000e+00   0.000000e+00      0s

Solved in 3 iterations and 0.00 seconds
Optimal objective  6.300000000e+01

Gurobi 7.5.2 (mac64) logging started Tue Mar  6 12:46:58 2018

Academic license - for non-commercial use only
Optimize a model with 1 rows, 5 columns and 5 nonzeros
Variable types: 0 continuous, 5 integer (5 binary)
Coefficient statistics:
  Matrix range     [1e+00, 4e+00]
  Objective range  [3e+00, 2e+01]
  Bounds range     [1e+00, 1e+00]
  RHS range        [1e+01, 1e+01]
Found heuristic solution: objective 31.0000000
Presolve removed 1 rows and 5 columns
Presolve time: 0.00s
Presolve: All rows and columns removed

Explored 0 nodes (0 simplex iterations) in 0.00 seconds
Thread count was 1 (of 4 available processors)

Solution count 1: 31 

Optimal solution found (tolerance 1.00e-04)
Best objective 3.100000000000e+01, best bound 3.100000000000e+01, gap 0.0000%

Gurobi 7.5.2 (mac64) logging started Tue Mar  6 12:46:58 2018

Academic license - for non-commercial use only
Optimize a model with 1 rows, 3 columns and 3 nonzeros
Coefficient statistics:
  Matrix range     [1e+00, 7e+00]
  Objective range  [1e+00, 1e+01]
  Bounds range     [0e+00, 0e+00]
  RHS range        [3e+01, 3e+01]
Presolve removed 1 rows and 3 columns
Presolve time: 0.00s
Presolve: All rows and columns removed
Iteration    Objective       Primal Inf.    Dual Inf.      Time
       0    7.7500000e+01   0.000000e+00   0.000000e+00      0s

Solved in 0 iterations and 0.00 seconds
Optimal objective  7.750000000e+01

Gurobi 7.5.2 (mac64) logging started Tue Mar  6 12:46:58 2018

Academic license - for non-commercial use only
Optimize a model with 1 rows, 5 columns and 5 nonzeros
Variable types: 0 continuous, 5 integer (5 binary)
Coefficient statistics:
  Matrix range     [1e+00, 4e+00]
  Objective range  [5e-01, 1e+01]
  Bounds range     [1e+00, 1e+00]
  RHS range        [1e+01, 1e+01]
Found heuristic solution: objective -14.5000000

Explored 0 nodes (0 simplex iterations) in 0.00 seconds
Thread count was 1 (of 4 available processors)

Solution count 1: -14.5 

Optimal solution found (tolerance 1.00e-04)
Best objective -1.450000000000e+01, best bound -1.450000000000e+01, gap 0.0000%

Gurobi 7.5.2 (mac64) logging started Tue Mar  6 12:46:59 2018

Academic license - for non-commercial use only
Optimize a model with 2 rows, 3 columns and 6 nonzeros
Coefficient statistics:
  Matrix range     [1e+00, 1e+01]
  Objective range  [1e+00, 1e+01]
  Bounds range     [0e+00, 0e+00]
  RHS range        [3e+01, 6e+01]
Presolve time: 0.00s
Presolved: 2 rows, 3 columns, 6 nonzeros

Iteration    Objective       Primal Inf.    Dual Inf.      Time
       0      handle free variables                          0s
       3    6.3000000e+01   0.000000e+00   0.000000e+00      0s

Solved in 3 iterations and 0.00 seconds
Optimal objective  6.300000000e+01

Gurobi 7.5.2 (mac64) logging started Tue Mar  6 12:47:07 2018

Academic license - for non-commercial use only
Optimize a model with 1 rows, 5 columns and 5 nonzeros
Variable types: 0 continuous, 5 integer (5 binary)
Coefficient statistics:
  Matrix range     [1e+00, 4e+00]
  Objective range  [3e+00, 2e+01]
  Bounds range     [1e+00, 1e+00]
  RHS range        [1e+01, 1e+01]
Found heuristic solution: objective 31.0000000
Presolve removed 1 rows and 5 columns
Presolve time: 0.00s
Presolve: All rows and columns removed

Explored 0 nodes (0 simplex iterations) in 0.00 seconds
Thread count was 1 (of 4 available processors)

Solution count 1: 31 

Optimal solution found (tolerance 1.00e-04)
Best objective 3.100000000000e+01, best bound 3.100000000000e+01, gap 0.0000%

Gurobi 7.5.2 (mac64) logging started Tue Mar  6 12:47:14 2018

Academic license - for non-commercial use only
Optimize a model with 1 rows, 3 columns and 3 nonzeros
Coefficient statistics:
  Matrix range     [1e+00, 7e+00]
  Objective range  [1e+00, 1e+01]
  Bounds range     [0e+00, 0e+00]
  RHS range        [3e+01, 3e+01]
Presolve removed 1 rows and 3 columns
Presolve time: 0.00s
Presolve: All rows and columns removed
Iteration    Objective       Primal Inf.    Dual Inf.      Time
       0    7.7500000e+01   0.000000e+00   0.000000e+00      0s

Solved in 0 iterations and 0.00 seconds
Optimal objective  7.750000000e+01

Gurobi 7.5.2 (mac64) logging started Tue Mar  6 12:47:22 2018

Academic license - for non-commercial use only
Optimize a model with 1 rows, 5 columns and 5 nonzeros
Variable types: 0 continuous, 5 integer (5 binary)
Coefficient statistics:
  Matrix range     [1e+00, 4e+00]
  Objective range  [5e-01, 1e+01]
  Bounds range     [1e+00, 1e+00]
  RHS range        [1e+01, 1e+01]
Found heuristic solution: objective -14.5000000

Explored 0 nodes (0 simplex iterations) in 0.00 seconds
Thread count was 1 (of 4 available processors)

Solution count 1: -14.5 

Optimal solution found (tolerance 1.00e-04)
Best objective -1.450000000000e+01, best bound -1.450000000000e+01, gap 0.0000%

Gurobi 7.5.2 (mac64) logging started Tue Mar  6 12:47:31 2018

Academic license - for non-commercial use only
Optimize a model with 2 rows, 3 columns and 6 nonzeros
Coefficient statistics:
  Matrix range     [1e+00, 1e+01]
  Objective range  [1e+00, 1e+01]
  Bounds range     [0e+00, 0e+00]
  RHS range        [3e+01, 6e+01]
Presolve time: 0.00s
Presolved: 2 rows, 3 columns, 6 nonzeros

Iteration    Objective       Primal Inf.    Dual Inf.      Time
       0      handle free variables                          0s
       3    6.3000000e+01   0.000000e+00   0.000000e+00      0s

Solved in 3 iterations and 0.00 seconds
Optimal objective  6.300000000e+01

Gurobi 7.5.2 (mac64) logging started Tue Mar  6 12:48:44 2018

Academic license - for non-commercial use only
Optimize a model with 2 rows, 3 columns and 6 nonzeros
Coefficient statistics:
  Matrix range     [1e+00, 1e+01]
  Objective range  [1e+00, 1e+01]
  Bounds range     [0e+00, 0e+00]
  RHS range        [3e+01, 6e+01]
Presolve time: 0.00s
Presolved: 2 rows, 3 columns, 6 nonzeros

Iteration    Objective       Primal Inf.    Dual Inf.      Time
       0      handle free variables                          0s
       3    6.3000000e+01   0.000000e+00   0.000000e+00      0s

Solved in 3 iterations and 0.00 seconds
Optimal objective  6.300000000e+01

Gurobi 7.5.2 (mac64) logging started Tue Mar  6 12:51:04 2018

Academic license - for non-commercial use only
Optimize a model with 1 rows, 5 columns and 5 nonzeros
Variable types: 0 continuous, 5 integer (5 binary)
Coefficient statistics:
  Matrix range     [1e+00, 4e+00]
  Objective range  [5e-01, 1e+01]
  Bounds range     [1e+00, 1e+00]
  RHS range        [1e+01, 1e+01]
Found heuristic solution: objective -14.5000000

Explored 0 nodes (0 simplex iterations) in 0.00 seconds
Thread count was 1 (of 4 available processors)

Solution count 1: -14.5 

Optimal solution found (tolerance 1.00e-04)
Best objective -1.450000000000e+01, best bound -1.450000000000e+01, gap 0.0000%

Gurobi 7.5.2 (mac64) logging started Tue Mar  6 12:51:11 2018

Academic license - for non-commercial use only
Optimize a model with 2 rows, 3 columns and 6 nonzeros
Coefficient statistics:
  Matrix range     [1e+00, 1e+01]
  Objective range  [1e+00, 1e+01]
  Bounds range     [0e+00, 0e+00]
  RHS range        [3e+01, 6e+01]
Presolve time: 0.00s
Presolved: 2 rows, 3 columns, 6 nonzeros

Iteration    Objective       Primal Inf.    Dual Inf.      Time
       0      handle free variables                          0s
       3    6.3000000e+01   0.000000e+00   0.000000e+00      0s

Solved in 3 iterations and 0.00 seconds
Optimal objective  6.300000000e+01

Gurobi 7.5.2 (mac64) logging started Tue Mar  6 12:56:26 2018

Academic license - for non-commercial use only
Optimize a model with 1 rows, 3 columns and 3 nonzeros
Coefficient statistics:
  Matrix range     [1e+00, 7e+00]
  Objective range  [1e+00, 1e+01]
  Bounds range     [0e+00, 0e+00]
  RHS range        [3e+01, 3e+01]
Presolve removed 1 rows and 3 columns
Presolve time: 0.00s
Presolve: All rows and columns removed
Iteration    Objective       Primal Inf.    Dual Inf.      Time
       0    7.7500000e+01   0.000000e+00   0.000000e+00      0s

Solved in 0 iterations and 0.00 seconds
Optimal objective  7.750000000e+01

Gurobi 7.5.2 (mac64) logging started Tue Mar  6 12:57:31 2018

Academic license - for non-commercial use only
Optimize a model with 1 rows, 5 columns and 5 nonzeros
Variable types: 0 continuous, 5 integer (5 binary)
Coefficient statistics:
  Matrix range     [1e+00, 4e+00]
  Objective range  [3e+00, 2e+01]
  Bounds range     [1e+00, 1e+00]
  RHS range        [1e+01, 1e+01]
Found heuristic solution: objective 31.0000000
Presolve removed 1 rows and 5 columns
Presolve time: 0.00s
Presolve: All rows and columns removed

Explored 0 nodes (0 simplex iterations) in 0.00 seconds
Thread count was 1 (of 4 available processors)

Solution count 1: 31 

Optimal solution found (tolerance 1.00e-04)
Best objective 3.100000000000e+01, best bound 3.100000000000e+01, gap 0.0000%

Gurobi 7.5.2 (mac64) logging started Tue Mar  6 12:57:31 2018

Academic license - for non-commercial use only
Optimize a model with 1 rows, 3 columns and 3 nonzeros
Coefficient statistics:
  Matrix range     [1e+00, 7e+00]
  Objective range  [1e+00, 1e+01]
  Bounds range     [0e+00, 0e+00]
  RHS range        [3e+01, 3e+01]
Presolve removed 1 rows and 3 columns
Presolve time: 0.00s
Presolve: All rows and columns removed
Iteration    Objective       Primal Inf.    Dual Inf.      Time
       0    7.7500000e+01   0.000000e+00   0.000000e+00      0s

Solved in 0 iterations and 0.00 seconds
Optimal objective  7.750000000e+01

Gurobi 7.5.2 (mac64) logging started Tue Mar  6 12:57:31 2018

Academic license - for non-commercial use only
Optimize a model with 1 rows, 5 columns and 5 nonzeros
Variable types: 0 continuous, 5 integer (5 binary)
Coefficient statistics:
  Matrix range     [1e+00, 4e+00]
  Objective range  [5e-01, 1e+01]
  Bounds range     [1e+00, 1e+00]
  RHS range        [1e+01, 1e+01]
Found heuristic solution: objective -14.5000000

Explored 0 nodes (0 simplex iterations) in 0.00 seconds
Thread count was 1 (of 4 available processors)

Solution count 1: -14.5 

Optimal solution found (tolerance 1.00e-04)
Best objective -1.450000000000e+01, best bound -1.450000000000e+01, gap 0.0000%

Gurobi 7.5.2 (mac64) logging started Tue Mar  6 12:57:31 2018

Academic license - for non-commercial use only
Optimize a model with 2 rows, 3 columns and 6 nonzeros
Coefficient statistics:
  Matrix range     [1e+00, 1e+01]
  Objective range  [1e+00, 1e+01]
  Bounds range     [0e+00, 0e+00]
  RHS range        [3e+01, 6e+01]
Presolve time: 0.00s
Presolved: 2 rows, 3 columns, 6 nonzeros

Iteration    Objective       Primal Inf.    Dual Inf.      Time
       0      handle free variables                          0s
       3    6.3000000e+01   0.000000e+00   0.000000e+00      0s

Solved in 3 iterations and 0.00 seconds
Optimal objective  6.300000000e+01

Gurobi 7.5.2 (mac64) logging started Tue Mar  6 12:58:21 2018

Academic license - for non-commercial use only
Optimize a model with 1 rows, 5 columns and 5 nonzeros
Variable types: 0 continuous, 5 integer (5 binary)
Coefficient statistics:
  Matrix range     [1e+00, 4e+00]
  Objective range  [3e+00, 2e+01]
  Bounds range     [1e+00, 1e+00]
  RHS range        [1e+01, 1e+01]
Found heuristic solution: objective 31.0000000
Presolve removed 1 rows and 5 columns
Presolve time: 0.00s
Presolve: All rows and columns removed

Explored 0 nodes (0 simplex iterations) in 0.00 seconds
Thread count was 1 (of 4 available processors)

Solution count 1: 31 

Optimal solution found (tolerance 1.00e-04)
Best objective 3.100000000000e+01, best bound 3.100000000000e+01, gap 0.0000%

Gurobi 7.5.2 (mac64) logging started Tue Mar  6 12:58:21 2018

Academic license - for non-commercial use only
Optimize a model with 1 rows, 3 columns and 3 nonzeros
Coefficient statistics:
  Matrix range     [1e+00, 7e+00]
  Objective range  [1e+00, 1e+01]
  Bounds range     [0e+00, 0e+00]
  RHS range        [3e+01, 3e+01]
Presolve removed 1 rows and 3 columns
Presolve time: 0.00s
Presolve: All rows and columns removed
Iteration    Objective       Primal Inf.    Dual Inf.      Time
       0    7.7500000e+01   0.000000e+00   0.000000e+00      0s

Solved in 0 iterations and 0.00 seconds
Optimal objective  7.750000000e+01

Gurobi 7.5.2 (mac64) logging started Tue Mar  6 12:58:21 2018

Academic license - for non-commercial use only
Optimize a model with 1 rows, 5 columns and 5 nonzeros
Variable types: 0 continuous, 5 integer (5 binary)
Coefficient statistics:
  Matrix range     [1e+00, 4e+00]
  Objective range  [5e-01, 1e+01]
  Bounds range     [1e+00, 1e+00]
  RHS range        [1e+01, 1e+01]
Found heuristic solution: objective -14.5000000

Explored 0 nodes (0 simplex iterations) in 0.00 seconds
Thread count was 1 (of 4 available processors)

Solution count 1: -14.5 

Optimal solution found (tolerance 1.00e-04)
Best objective -1.450000000000e+01, best bound -1.450000000000e+01, gap 0.0000%

Gurobi 7.5.2 (mac64) logging started Tue Mar  6 12:58:21 2018

Academic license - for non-commercial use only
Optimize a model with 2 rows, 3 columns and 6 nonzeros
Coefficient statistics:
  Matrix range     [1e+00, 1e+01]
  Objective range  [1e+00, 1e+01]
  Bounds range     [0e+00, 0e+00]
  RHS range        [3e+01, 6e+01]
Presolve time: 0.00s
Presolved: 2 rows, 3 columns, 6 nonzeros

Iteration    Objective       Primal Inf.    Dual Inf.      Time
       0      handle free variables                          0s
       3    6.3000000e+01   0.000000e+00   0.000000e+00      0s

Solved in 3 iterations and 0.00 seconds
Optimal objective  6.300000000e+01

Gurobi 7.5.2 (mac64) logging started Tue Mar  6 13:01:03 2018

Academic license - for non-commercial use only
Optimize a model with 2 rows, 3 columns and 6 nonzeros
Coefficient statistics:
  Matrix range     [1e+00, 1e+01]
  Objective range  [1e+00, 1e+01]
  Bounds range     [0e+00, 0e+00]
  RHS range        [3e+01, 6e+01]
Presolve time: 0.00s
Presolved: 2 rows, 3 columns, 6 nonzeros

Iteration    Objective       Primal Inf.    Dual Inf.      Time
       0    4.7500000e+30   4.156250e+30   4.750000e+00      0s
       2    6.3000000e+01   0.000000e+00   0.000000e+00      0s

Solved in 2 iterations and 0.00 seconds
Optimal objective  6.300000000e+01

Gurobi 7.5.2 (mac64) logging started Tue Mar  6 13:01:08 2018

Academic license - for non-commercial use only
Optimize a model with 1 rows, 5 columns and 5 nonzeros
Variable types: 0 continuous, 5 integer (5 binary)
Coefficient statistics:
  Matrix range     [1e+00, 4e+00]
  Objective range  [9e-01, 9e+00]
  Bounds range     [1e+00, 1e+00]
  RHS range        [1e+01, 1e+01]
Found heuristic solution: objective 5.8000000
Presolve removed 1 rows and 5 columns
Presolve time: 0.00s
Presolve: All rows and columns removed

Explored 0 nodes (0 simplex iterations) in 0.00 seconds
Thread count was 1 (of 4 available processors)

Solution count 2: 3.55271e-15 5.8 

Optimal solution found (tolerance 1.00e-04)
Best objective 3.552713678801e-15, best bound 3.552713678801e-15, gap 0.0000%

Gurobi 7.5.2 (mac64) logging started Tue Mar  6 13:01:15 2018

Academic license - for non-commercial use only
Optimize a model with 2 rows, 3 columns and 6 nonzeros
Coefficient statistics:
  Matrix range     [1e+00, 1e+01]
  Objective range  [1e+00, 1e+01]
  Bounds range     [0e+00, 0e+00]
  RHS range        [3e+01, 6e+01]
Presolve time: 0.00s
Presolved: 2 rows, 3 columns, 6 nonzeros

Iteration    Objective       Primal Inf.    Dual Inf.      Time
       0      handle free variables                          0s
       3    6.3000000e+01   0.000000e+00   0.000000e+00      0s

Solved in 3 iterations and 0.00 seconds
Optimal objective  6.300000000e+01

Gurobi 7.5.2 (mac64) logging started Tue Mar  6 13:01:25 2018

Academic license - for non-commercial use only
Optimize a model with 1 rows, 5 columns and 5 nonzeros
Variable types: 0 continuous, 5 integer (5 binary)
Coefficient statistics:
  Matrix range     [1e+00, 4e+00]
  Objective range  [3e+00, 2e+01]
  Bounds range     [1e+00, 1e+00]
  RHS range        [1e+01, 1e+01]
Found heuristic solution: objective 31.0000000
Presolve removed 1 rows and 5 columns
Presolve time: 0.00s
Presolve: All rows and columns removed

Explored 0 nodes (0 simplex iterations) in 0.00 seconds
Thread count was 1 (of 4 available processors)

Solution count 1: 31 

Optimal solution found (tolerance 1.00e-04)
Best objective 3.100000000000e+01, best bound 3.100000000000e+01, gap 0.0000%

Gurobi 7.5.2 (mac64) logging started Tue Mar  6 13:01:32 2018

Academic license - for non-commercial use only
Optimize a model with 1 rows, 3 columns and 3 nonzeros
Coefficient statistics:
  Matrix range     [1e+00, 7e+00]
  Objective range  [1e+00, 1e+01]
  Bounds range     [0e+00, 0e+00]
  RHS range        [3e+01, 3e+01]
Presolve removed 1 rows and 3 columns
Presolve time: 0.00s
Presolve: All rows and columns removed
Iteration    Objective       Primal Inf.    Dual Inf.      Time
       0    7.7500000e+01   0.000000e+00   0.000000e+00      0s

Solved in 0 iterations and 0.00 seconds
Optimal objective  7.750000000e+01

Gurobi 7.5.2 (mac64) logging started Tue Mar  6 13:01:37 2018

Academic license - for non-commercial use only
Optimize a model with 1 rows, 5 columns and 5 nonzeros
Variable types: 0 continuous, 5 integer (5 binary)
Coefficient statistics:
  Matrix range     [1e+00, 4e+00]
  Objective range  [5e-01, 1e+01]
  Bounds range     [1e+00, 1e+00]
  RHS range        [1e+01, 1e+01]
Found heuristic solution: objective -14.5000000

Explored 0 nodes (0 simplex iterations) in 0.00 seconds
Thread count was 1 (of 4 available processors)

Solution count 1: -14.5 

Optimal solution found (tolerance 1.00e-04)
Best objective -1.450000000000e+01, best bound -1.450000000000e+01, gap 0.0000%

Gurobi 7.5.2 (mac64) logging started Tue Mar  6 13:01:42 2018

Academic license - for non-commercial use only
Optimize a model with 2 rows, 3 columns and 6 nonzeros
Coefficient statistics:
  Matrix range     [1e+00, 1e+01]
  Objective range  [1e+00, 1e+01]
  Bounds range     [0e+00, 0e+00]
  RHS range        [3e+01, 6e+01]
Presolve time: 0.00s
Presolved: 2 rows, 3 columns, 6 nonzeros

Iteration    Objective       Primal Inf.    Dual Inf.      Time
       0      handle free variables                          0s
       3    6.3000000e+01   0.000000e+00   0.000000e+00      0s

Solved in 3 iterations and 0.00 seconds
Optimal objective  6.300000000e+01

Gurobi 7.5.2 (mac64) logging started Tue Mar  6 13:02:02 2018

Academic license - for non-commercial use only
Optimize a model with 1 rows, 5 columns and 5 nonzeros
Variable types: 0 continuous, 5 integer (5 binary)
Coefficient statistics:
  Matrix range     [1e+00, 4e+00]
  Objective range  [7e-01, 8e+00]
  Bounds range     [1e+00, 1e+00]
  RHS range        [1e+01, 1e+01]
Found heuristic solution: objective 9.6666667
Presolve removed 1 rows and 5 columns
Presolve time: 0.00s
Presolve: All rows and columns removed

Explored 0 nodes (0 simplex iterations) in 0.00 seconds
Thread count was 1 (of 4 available processors)

Solution count 2: 9.66667 9.66667 

Optimal solution found (tolerance 1.00e-04)
Best objective 9.666666666667e+00, best bound 9.666666666667e+00, gap 0.0000%
